NAME          DCAP_3_3_2_300_SS252
ROWS
 N  OBJ
 L  CON1
 L  CON2
 L  CON3
 L  CON4
 L  CON5
 L  CON6
 L  CON7
 L  CON8
 L  CON9
 L  CON10
 L  CON11
 L  CON12
 E  CON13
 E  CON14
 E  CON15
 E  CON16
 E  CON17
 E  CON18
COLUMNS
    x[1,1]    OBJ       6.180167      CON1      1.000000    
    x[1,1]    CON7      -1.000000     CON8      -1.000000   
    x[1,2]    OBJ       5.039546      CON2      1.000000    
    x[1,2]    CON8      -1.000000   
    x[2,1]    OBJ       6.732585      CON3      1.000000    
    x[2,1]    CON9      -1.000000     CON10     -1.000000   
    x[2,2]    OBJ       7.443064      CON4      1.000000    
    x[2,2]    CON10     -1.000000   
    x[3,1]    OBJ       6.563535      CON5      1.000000    
    x[3,1]    CON11     -1.000000     CON12     -1.000000   
    x[3,2]    OBJ       6.054841      CON6      1.000000    
    x[3,2]    CON12     -1.000000   
    MARKER    'MARKER'                'INTORG'
    u[1,1]    OBJ       48.076654     CON1      -1.000000   
    u[1,2]    OBJ       49.466655     CON2      -1.000000   
    u[2,1]    OBJ       49.996186     CON3      -1.000000   
    u[2,2]    OBJ       32.230043     CON4      -1.000000   
    u[3,1]    OBJ       20.066487     CON5      -1.000000   
    u[3,2]    OBJ       27.484319     CON6      -1.000000   
    y[1,1,1]  OBJ       8.846559      CON7      1.353896    
    y[1,1,1]  CON13     1.000000    
    y[1,1,2]  OBJ       5.939698      CON8      0.677858    
    y[1,1,2]  CON14     1.000000    
    y[1,2,1]  OBJ       5.299549      CON7      1.038247    
    y[1,2,1]  CON15     1.000000    
    y[1,2,2]  OBJ       5.226737      CON8      1.425548    
    y[1,2,2]  CON16     1.000000    
    y[1,3,1]  OBJ       8.949820      CON7      0.978710    
    y[1,3,1]  CON17     1.000000    
    y[1,3,2]  OBJ       7.172997      CON8      1.469365    
    y[1,3,2]  CON18     1.000000    
    y[2,1,1]  OBJ       5.737796      CON9      1.353896    
    y[2,1,1]  CON13     1.000000    
    y[2,1,2]  OBJ       8.083433      CON10     0.677858    
    y[2,1,2]  CON14     1.000000    
    y[2,2,1]  OBJ       6.838686      CON9      1.038247    
    y[2,2,1]  CON15     1.000000    
    y[2,2,2]  OBJ       5.878966      CON10     1.425548    
    y[2,2,2]  CON16     1.000000    
    y[2,3,1]  OBJ       7.798898      CON9      0.978710    
    y[2,3,1]  CON17     1.000000    
    y[2,3,2]  OBJ       8.688803      CON10     1.469365    
    y[2,3,2]  CON18     1.000000    
    y[3,1,1]  OBJ       8.021505      CON11     1.353896    
    y[3,1,1]  CON13     1.000000    
    y[3,1,2]  OBJ       6.878302      CON12     0.677858    
    y[3,1,2]  CON14     1.000000    
    y[3,2,1]  OBJ       7.085529      CON11     1.038247    
    y[3,2,1]  CON15     1.000000    
    y[3,2,2]  OBJ       9.943169      CON12     1.425548    
    y[3,2,2]  CON16     1.000000    
    y[3,3,1]  OBJ       6.961990      CON11     0.978710    
    y[3,3,1]  CON17     1.000000    
    y[3,3,2]  OBJ       9.455975      CON12     1.469365    
    y[3,3,2]  CON18     1.000000    
    z[1,1]    OBJ       799.923533    CON13     1.000000    
    z[1,2]    OBJ       503.140975    CON14     1.000000    
    z[2,1]    OBJ       864.298524    CON15     1.000000    
    z[2,2]    OBJ       633.472246    CON16     1.000000    
    z[3,1]    OBJ       920.218680    CON17     1.000000    
    z[3,2]    OBJ       574.754378    CON18     1.000000    
    MARKER    'MARKER'                 'INTEND'
RHS
    RHS       CON1      -0.000000     CON2      -0.000000   
    RHS       CON3      -0.000000     CON4      -0.000000   
    RHS       CON5      -0.000000     CON6      -0.000000   
    RHS       CON7      -0.000000     CON8      -0.000000   
    RHS       CON9      -0.000000     CON10     -0.000000   
    RHS       CON11     -0.000000     CON12     -0.000000   
    RHS       CON13     1.000000      CON14     1.000000    
    RHS       CON15     1.000000      CON16     1.000000    
    RHS       CON17     1.000000      CON18     1.000000    
BOUNDS
 BV BOUND     u[1,1]  
 BV BOUND     u[1,2]  
 BV BOUND     u[2,1]  
 BV BOUND     u[2,2]  
 BV BOUND     u[3,1]  
 BV BOUND     u[3,2]  
 BV BOUND     y[1,1,1]
 BV BOUND     y[1,1,2]
 BV BOUND     y[1,2,1]
 BV BOUND     y[1,2,2]
 BV BOUND     y[1,3,1]
 BV BOUND     y[1,3,2]
 BV BOUND     y[2,1,1]
 BV BOUND     y[2,1,2]
 BV BOUND     y[2,2,1]
 BV BOUND     y[2,2,2]
 BV BOUND     y[2,3,1]
 BV BOUND     y[2,3,2]
 BV BOUND     y[3,1,1]
 BV BOUND     y[3,1,2]
 BV BOUND     y[3,2,1]
 BV BOUND     y[3,2,2]
 BV BOUND     y[3,3,1]
 BV BOUND     y[3,3,2]
 BV BOUND     z[1,1]  
 BV BOUND     z[1,2]  
 BV BOUND     z[2,1]  
 BV BOUND     z[2,2]  
 BV BOUND     z[3,1]  
 BV BOUND     z[3,2]  
ENDATA
